DIMENSION :20
NODE_COORD_SECTION
1 -72.33424259463798 -38.078410108057746
2 29.765968941327685 75.73331368238996
3 -64.43288162343592 -20.392294650649717
4 -23.08395384652229 -64.20239265434257
5 48.690079899545 -57.445189888407455
6 93.30320699236802 5.182207626544994
7 -23.857934886033718 -71.22253007119338
8 -87.26254911396896 79.99176279166312
9 64.7066069951764 16.479617839621824
10 -23.575455805771554 53.172866237373796
11 -8.523418947764156 39.11116405236467
12 46.30972067440152 -37.031310536975326
13 82.86472434597539 35.919601934636034
14 12.685034933762253 53.99810023248895
15 78.03955201426876 96.17176098187034
16 -67.43452204682853 -62.87728644740205
17 -37.93866264223376 -45.990298792255466
18 -91.80942245933126 83.6791886950893
19 82.46933999068835 -19.056013584187383
20 69.1096781317809 -29.681734405639332
EOF
